p cnf 258 914
6 -47 -50 0
3 38 39 0
14 -37 41 0
28 -49 4 0
27 -25 -6 0
-27 -46 -20 0
-48 -36 46 0
32 10 49 0
39 -14 49 0
-1 50 36 0
16 40 1 0
23 -33 18 0
-26 -12 16 0
-32 16 17 0
-41 -4 7 0
17 -47 -43 0
-39 -2 -34 0
48 -12 4 0
-41 13 11 0
28 32 7 0
-50 -42 -1 0
-31 23 2 0
39 -14 -22 0
-20 29 6 0
9 46 24 0
21 -46 12 0
20 -1 -5 0
-6 -1 -30 0
-11 36 -30 0
-4 -38 23 0
-10 -30 15 0
-38 -23 32 0
4 -45 7 0
-40 7 26 0
3 4 -36 0
37 1 -14 0
-13 24 -16 0
-12 10 7 0
14 -36 49 0
19 -27 -24 0
-17 31 42 0
-37 -8 36 0
5 -35 -40 0
8 -23 -29 0
-17 -15 -20 0
-1 28 -17 0
-39 -34 -27 0
14 23 -18 0
26 -24 -14 0
3 -10 -30 0
2 3 51 0
-2 3 -51 0
2 -3 -51 0
-2 -3 51 0
5 -6 52 0
-5 -6 -52 0
5 6 -52 0
-5 6 52 0
-9 10 53 0
9 10 -53 0
-9 -10 -53 0
9 -10 53 0
11 -12 54 0
-11 -12 -54 0
11 12 -54 0
-11 12 54 0
13 14 55 0
-13 14 -55 0
13 -14 -55 0
-13 -14 55 0
17 23 56 0
-17 23 -56 0
17 -23 -56 0
-17 -23 56 0
-25 -27 57 0
25 -27 -57 0
-25 27 -57 0
25 27 57 0
30 -31 58 0
-30 -31 -58 0
30 31 -58 0
-30 31 58 0
-32 -33 59 0
32 -33 -59 0
-32 33 -59 0
32 33 59 0
35 -36 60 0
-35 -36 -60 0
35 36 -60 0
-35 36 60 0
-39 40 61 0
39 40 -61 0
-39 -40 -61 0
39 -40 61 0
-42 43 62 0
42 43 -62 0
-42 -43 -62 0
42 -43 62 0
44 45 63 0
-44 45 -63 0
44 -45 -63 0
-44 -45 63 0
-46 -47 64 0
46 -47 -64 0
-46 47 -64 0
46 47 64 0
51 -52 65 0
-51 -52 -65 0
51 52 -65 0
-51 52 65 0
53 -54 66 0
-53 -54 -66 0
53 54 -66 0
-53 54 66 0
55 -56 67 0
-55 -56 -67 0
55 56 -67 0
-55 56 67 0
57 -58 68 0
-57 -58 -68 0
57 58 -68 0
-57 58 68 0
59 -60 69 0
-59 -60 -69 0
59 60 -69 0
-59 60 69 0
61 -62 70 0
-61 -62 -70 0
61 62 -70 0
-61 62 70 0
63 -64 71 0
-63 -64 -71 0
63 64 -71 0
-63 64 71 0
65 -66 72 0
-65 -66 -72 0
65 66 -72 0
-65 66 72 0
67 -68 73 0
-67 -68 -73 0
67 68 -73 0
-67 68 73 0
69 -70 74 0
-69 -70 -74 0
69 70 -74 0
-69 70 74 0
71 -72 75 0
-71 -72 -75 0
71 72 -75 0
-71 72 75 0
73 -74 76 0
-73 -74 -76 0
73 74 -76 0
-73 74 76 0
75 76 0
-75 -76 0
-1 6 77 0
1 6 -77 0
-1 -6 -77 0
1 -6 77 0
-7 -10 78 0
7 -10 -78 0
-7 10 -78 0
7 10 78 0
-11 -14 79 0
11 -14 -79 0
-11 14 -79 0
11 14 79 0
-15 16 80 0
15 16 -80 0
-15 -16 -80 0
15 -16 80 0
-19 20 81 0
19 20 -81 0
-19 -20 -81 0
19 -20 81 0
21 -23 82 0
-21 -23 -82 0
21 23 -82 0
-21 23 82 0
-25 -29 83 0
25 -29 -83 0
-25 29 -83 0
25 29 83 0
-30 -32 84 0
30 -32 -84 0
-30 32 -84 0
30 32 84 0
33 -35 85 0
-33 -35 -85 0
33 35 -85 0
-33 35 85 0
-36 37 86 0
36 37 -86 0
-36 -37 -86 0
36 -37 86 0
-43 -45 87 0
43 -45 -87 0
-43 45 -87 0
43 45 87 0
46 -47 88 0
-46 -47 -88 0
46 47 -88 0
-46 47 88 0
-48 49 89 0
48 49 -89 0
-48 -49 -89 0
48 -49 89 0
76 -77 90 0
-76 -77 -90 0
76 77 -90 0
-76 77 90 0
78 -79 91 0
-78 -79 -91 0
78 79 -91 0
-78 79 91 0
80 -81 92 0
-80 -81 -92 0
80 81 -92 0
-80 81 92 0
82 -83 93 0
-82 -83 -93 0
82 83 -93 0
-82 83 93 0
84 -85 94 0
-84 -85 -94 0
84 85 -94 0
-84 85 94 0
86 -87 95 0
-86 -87 -95 0
86 87 -95 0
-86 87 95 0
88 -89 96 0
-88 -89 -96 0
88 89 -96 0
-88 89 96 0
90 -91 97 0
-90 -91 -97 0
90 91 -97 0
-90 91 97 0
92 -93 98 0
-92 -93 -98 0
92 93 -98 0
-92 93 98 0
94 -95 99 0
-94 -95 -99 0
94 95 -99 0
-94 95 99 0
96 -97 100 0
-96 -97 -100 0
96 97 -100 0
-96 97 100 0
98 -99 101 0
-98 -99 -101 0
98 99 -101 0
-98 99 101 0
100 101 0
-100 -101 0
1 -2 102 0
-1 -2 -102 0
1 2 -102 0
-1 2 102 0
-3 8 103 0
3 8 -103 0
-3 -8 -103 0
3 -8 103 0
-9 11 104 0
9 11 -104 0
-9 -11 -104 0
9 -11 104 0
-12 13 105 0
12 13 -105 0
-12 -13 -105 0
12 -13 105 0
-17 18 106 0
17 18 -106 0
-17 -18 -106 0
17 -18 106 0
-19 -22 107 0
19 -22 -107 0
-19 22 -107 0
19 22 107 0
25 -26 108 0
-25 -26 -108 0
25 26 -108 0
-25 26 108 0
30 -31 109 0
-30 -31 -109 0
30 31 -109 0
-30 31 109 0
-32 34 110 0
32 34 -110 0
-32 -34 -110 0
32 -34 110 0
-35 -38 111 0
35 -38 -111 0
-35 38 -111 0
35 38 111 0
43 44 112 0
-43 44 -112 0
43 -44 -112 0
-43 -44 112 0
45 49 113 0
-45 49 -113 0
45 -49 -113 0
-45 -49 113 0
101 -102 114 0
-101 -102 -114 0
101 102 -114 0
-101 102 114 0
103 -104 115 0
-103 -104 -115 0
103 104 -115 0
-103 104 115 0
105 -106 116 0
-105 -106 -116 0
105 106 -116 0
-105 106 116 0
107 -108 117 0
-107 -108 -117 0
107 108 -117 0
-107 108 117 0
109 -110 118 0
-109 -110 -118 0
109 110 -118 0
-109 110 118 0
111 -112 119 0
-111 -112 -119 0
111 112 -119 0
-111 112 119 0
113 -114 120 0
-113 -114 -120 0
113 114 -120 0
-113 114 120 0
115 -116 121 0
-115 -116 -121 0
115 116 -121 0
-115 116 121 0
117 -118 122 0
-117 -118 -122 0
117 118 -122 0
-117 118 122 0
119 -120 123 0
-119 -120 -123 0
119 120 -123 0
-119 120 123 0
121 -122 124 0
-121 -122 -124 0
121 122 -124 0
-121 122 124 0
123 124 0
-123 -124 0
2 -4 125 0
-2 -4 -125 0
2 4 -125 0
-2 4 125 0
6 7 126 0
-6 7 -126 0
6 -7 -126 0
-6 -7 126 0
10 11 127 0
-10 11 -127 0
10 -11 -127 0
-10 -11 127 0
-18 22 128 0
18 22 -128 0
-18 -22 -128 0
18 -22 128 0
23 -26 129 0
-23 -26 -129 0
23 26 -129 0
-23 26 129 0
28 29 130 0
-28 29 -130 0
28 -29 -130 0
-28 -29 130 0
30 31 131 0
-30 31 -131 0
30 -31 -131 0
-30 -31 131 0
32 38 132 0
-32 38 -132 0
32 -38 -132 0
-32 -38 132 0
-39 -41 133 0
39 -41 -133 0
-39 41 -133 0
39 41 133 0
-43 44 134 0
43 44 -134 0
-43 -44 -134 0
43 -44 134 0
-45 -47 135 0
45 -47 -135 0
-45 47 -135 0
45 47 135 0
125 -126 136 0
-125 -126 -136 0
125 126 -136 0
-125 126 136 0
127 -128 137 0
-127 -128 -137 0
127 128 -137 0
-127 128 137 0
129 -130 138 0
-129 -130 -138 0
129 130 -138 0
-129 130 138 0
131 -132 139 0
-131 -132 -139 0
131 132 -139 0
-131 132 139 0
133 -134 140 0
-133 -134 -140 0
133 134 -140 0
-133 134 140 0
135 -136 141 0
-135 -136 -141 0
135 136 -141 0
-135 136 141 0
137 -138 142 0
-137 -138 -142 0
137 138 -142 0
-137 138 142 0
139 -140 143 0
-139 -140 -143 0
139 140 -143 0
-139 140 143 0
-141 -142 143 0
141 -142 -143 0
-141 142 -143 0
141 142 143 0
-2 -3 144 0
2 -3 -144 0
-2 3 -144 0
2 3 144 0
-5 10 145 0
5 10 -145 0
-5 -10 -145 0
5 -10 145 0
-12 -13 146 0
12 -13 -146 0
-12 13 -146 0
12 13 146 0
-16 -17 147 0
16 -17 -147 0
-16 17 -147 0
16 17 147 0
18 20 148 0
-18 20 -148 0
18 -20 -148 0
-18 -20 148 0
21 -23 149 0
-21 -23 -149 0
21 23 -149 0
-21 23 149 0
24 -25 150 0
-24 -25 -150 0
24 25 -150 0
-24 25 150 0
-26 27 151 0
26 27 -151 0
-26 -27 -151 0
26 -27 151 0
-29 -30 152 0
29 -30 -152 0
-29 30 -152 0
29 30 152 0
31 -32 153 0
-31 -32 -153 0
31 32 -153 0
-31 32 153 0
36 37 154 0
-36 37 -154 0
36 -37 -154 0
-36 -37 154 0
-38 -39 155 0
38 -39 -155 0
-38 39 -155 0
38 39 155 0
-40 -44 156 0
40 -44 -156 0
-40 44 -156 0
40 44 156 0
46 48 157 0
-46 48 -157 0
46 -48 -157 0
-46 -48 157 0
144 -145 158 0
-144 -145 -158 0
144 145 -158 0
-144 145 158 0
146 -147 159 0
-146 -147 -159 0
146 147 -159 0
-146 147 159 0
148 -149 160 0
-148 -149 -160 0
148 149 -160 0
-148 149 160 0
150 -151 161 0
-150 -151 -161 0
150 151 -161 0
-150 151 161 0
152 -153 162 0
-152 -153 -162 0
152 153 -162 0
-152 153 162 0
154 -155 163 0
-154 -155 -163 0
154 155 -163 0
-154 155 163 0
156 -157 164 0
-156 -157 -164 0
156 157 -164 0
-156 157 164 0
158 -159 165 0
-158 -159 -165 0
158 159 -165 0
-158 159 165 0
160 -161 166 0
-160 -161 -166 0
160 161 -166 0
-160 161 166 0
162 -163 167 0
-162 -163 -167 0
162 163 -167 0
-162 163 167 0
164 -165 168 0
-164 -165 -168 0
164 165 -168 0
-164 165 168 0
166 -167 169 0
-166 -167 -169 0
166 167 -169 0
-166 167 169 0
168 169 0
-168 -169 0
2 -4 170 0
-2 -4 -170 0
2 4 -170 0
-2 4 170 0
-7 8 171 0
7 8 -171 0
-7 -8 -171 0
7 -8 171 0
10 12 172 0
-10 12 -172 0
10 -12 -172 0
-10 -12 172 0
-15 17 173 0
15 17 -173 0
-15 -17 -173 0
15 -17 173 0
20 22 174 0
-20 22 -174 0
20 -22 -174 0
-20 -22 174 0
-26 27 175 0
26 27 -175 0
-26 -27 -175 0
26 -27 175 0
30 31 176 0
-30 31 -176 0
30 -31 -176 0
-30 -31 176 0
-36 41 177 0
36 41 -177 0
-36 -41 -177 0
36 -41 177 0
44 46 178 0
-44 46 -178 0
44 -46 -178 0
-44 -46 178 0
-48 -50 179 0
48 -50 -179 0
-48 50 -179 0
48 50 179 0
170 -171 180 0
-170 -171 -180 0
170 171 -180 0
-170 171 180 0
172 -173 181 0
-172 -173 -181 0
172 173 -181 0
-172 173 181 0
174 -175 182 0
-174 -175 -182 0
174 175 -182 0
-174 175 182 0
176 -177 183 0
-176 -177 -183 0
176 177 -183 0
-176 177 183 0
178 -179 184 0
-178 -179 -184 0
178 179 -184 0
-178 179 184 0
180 -181 185 0
-180 -181 -185 0
180 181 -185 0
-180 181 185 0
182 -183 186 0
-182 -183 -186 0
182 183 -186 0
-182 183 186 0
-184 -185 186 0
184 -185 -186 0
-184 185 -186 0
184 185 186 0
-1 -2 187 0
1 -2 -187 0
-1 2 -187 0
1 2 187 0
4 5 188 0
-4 5 -188 0
4 -5 -188 0
-4 -5 188 0
-9 14 189 0
9 14 -189 0
-9 -14 -189 0
9 -14 189 0
17 18 190 0
-17 18 -190 0
17 -18 -190 0
-17 -18 190 0
-20 -25 191 0
20 -25 -191 0
-20 25 -191 0
20 25 191 0
-26 33 192 0
26 33 -192 0
-26 -33 -192 0
26 -33 192 0
34 -36 193 0
-34 -36 -193 0
34 36 -193 0
-34 36 193 0
-37 -40 194 0
37 -40 -194 0
-37 40 -194 0
37 40 194 0
-42 -43 195 0
42 -43 -195 0
-42 43 -195 0
42 43 195 0
-44 48 196 0
44 48 -196 0
-44 -48 -196 0
44 -48 196 0
186 -187 197 0
-186 -187 -197 0
186 187 -197 0
-186 187 197 0
188 -189 198 0
-188 -189 -198 0
188 189 -198 0
-188 189 198 0
190 -191 199 0
-190 -191 -199 0
190 191 -199 0
-190 191 199 0
192 -193 200 0
-192 -193 -200 0
192 193 -200 0
-192 193 200 0
194 -195 201 0
-194 -195 -201 0
194 195 -201 0
-194 195 201 0
196 -197 202 0
-196 -197 -202 0
196 197 -202 0
-196 197 202 0
198 -199 203 0
-198 -199 -203 0
198 199 -203 0
-198 199 203 0
200 -201 204 0
-200 -201 -204 0
200 201 -204 0
-200 201 204 0
-202 -203 204 0
202 -203 -204 0
-202 203 -204 0
202 203 204 0
3 6 205 0
-3 6 -205 0
3 -6 -205 0
-3 -6 205 0
9 -12 206 0
-9 -12 -206 0
9 12 -206 0
-9 12 206 0
-13 14 207 0
13 14 -207 0
-13 -14 -207 0
13 -14 207 0
-15 16 208 0
15 16 -208 0
-15 -16 -208 0
15 -16 208 0
18 -19 209 0
-18 -19 -209 0
18 19 -209 0
-18 19 209 0
20 26 210 0
-20 26 -210 0
20 -26 -210 0
-20 -26 210 0
28 -29 211 0
-28 -29 -211 0
28 29 -211 0
-28 29 211 0
-31 36 212 0
31 36 -212 0
-31 -36 -212 0
31 -36 212 0
40 -42 213 0
-40 -42 -213 0
40 42 -213 0
-40 42 213 0
44 -48 214 0
-44 -48 -214 0
44 48 -214 0
-44 48 214 0
205 -206 215 0
-205 -206 -215 0
205 206 -215 0
-205 206 215 0
207 -208 216 0
-207 -208 -216 0
207 208 -216 0
-207 208 216 0
209 -210 217 0
-209 -210 -217 0
209 210 -217 0
-209 210 217 0
211 -212 218 0
-211 -212 -218 0
211 212 -218 0
-211 212 218 0
213 -214 219 0
-213 -214 -219 0
213 214 -219 0
-213 214 219 0
215 -216 220 0
-215 -216 -220 0
215 216 -220 0
-215 216 220 0
217 -218 221 0
-217 -218 -221 0
217 218 -221 0
-217 218 221 0
-219 -220 221 0
219 -220 -221 0
-219 220 -221 0
219 220 221 0
5 -8 222 0
-5 -8 -222 0
5 8 -222 0
-5 8 222 0
-11 -14 223 0
11 -14 -223 0
-11 14 -223 0
11 14 223 0
-15 -16 224 0
15 -16 -224 0
-15 16 -224 0
15 16 224 0
-17 18 225 0
17 18 -225 0
-17 -18 -225 0
17 -18 225 0
20 -22 226 0
-20 -22 -226 0
20 22 -226 0
-20 22 226 0
-24 25 227 0
24 25 -227 0
-24 -25 -227 0
24 -25 227 0
-26 -29 228 0
26 -29 -228 0
-26 29 -228 0
26 29 228 0
30 -31 229 0
-30 -31 -229 0
30 31 -229 0
-30 31 229 0
34 38 230 0
-34 38 -230 0
34 -38 -230 0
-34 -38 230 0
-41 -45 231 0
41 -45 -231 0
-41 45 -231 0
41 45 231 0
-46 49 232 0
46 49 -232 0
-46 -49 -232 0
46 -49 232 0
221 -222 233 0
-221 -222 -233 0
221 222 -233 0
-221 222 233 0
223 -224 234 0
-223 -224 -234 0
223 224 -234 0
-223 224 234 0
225 -226 235 0
-225 -226 -235 0
225 226 -235 0
-225 226 235 0
227 -228 236 0
-227 -228 -236 0
227 228 -236 0
-227 228 236 0
229 -230 237 0
-229 -230 -237 0
229 230 -237 0
-229 230 237 0
231 -232 238 0
-231 -232 -238 0
231 232 -238 0
-231 232 238 0
233 -234 239 0
-233 -234 -239 0
233 234 -239 0
-233 234 239 0
235 -236 240 0
-235 -236 -240 0
235 236 -240 0
-235 236 240 0
237 -238 241 0
-237 -238 -241 0
237 238 -241 0
-237 238 241 0
-239 -240 241 0
239 -240 -241 0
-239 240 -241 0
239 240 241 0
-2 3 242 0
2 3 -242 0
-2 -3 -242 0
2 -3 242 0
4 7 243 0
-4 7 -243 0
4 -7 -243 0
-4 -7 243 0
-8 12 244 0
8 12 -244 0
-8 -12 -244 0
8 -12 244 0
15 -16 245 0
-15 -16 -245 0
15 16 -245 0
-15 16 245 0
-18 -23 246 0
18 -23 -246 0
-18 23 -246 0
18 23 246 0
-31 -32 247 0
31 -32 -247 0
-31 32 -247 0
31 32 247 0
-33 34 248 0
33 34 -248 0
-33 -34 -248 0
33 -34 248 0
35 37 249 0
-35 37 -249 0
35 -37 -249 0
-35 -37 249 0
-44 46 250 0
44 46 -250 0
-44 -46 -250 0
44 -46 250 0
49 -50 251 0
-49 -50 -251 0
49 50 -251 0
-49 50 251 0
242 -243 252 0
-242 -243 -252 0
242 243 -252 0
-242 243 252 0
244 -245 253 0
-244 -245 -253 0
244 245 -253 0
-244 245 253 0
246 -247 254 0
-246 -247 -254 0
246 247 -254 0
-246 247 254 0
248 -249 255 0
-248 -249 -255 0
248 249 -255 0
-248 249 255 0
250 -251 256 0
-250 -251 -256 0
250 251 -256 0
-250 251 256 0
252 -253 257 0
-252 -253 -257 0
252 253 -257 0
-252 253 257 0
254 -255 258 0
-254 -255 -258 0
254 255 -258 0
-254 255 258 0
-256 -257 258 0
256 -257 -258 0
-256 257 -258 0
256 257 258 0
